
  32   50
  13    7   10   11   22   13   10    1    5   13    9    2   10   20    6    6   18   13   11   11   14   12   10   13    8    7   14   12   13   16   10    8    0    0    0    0    0    0    0    0    0    0    0    0    0    0    0    0    0    0

   0   0   0   0   0   0   0   0   0   0   0   0   0   0   0   0   0   0   0   0   0   0   0   0   0   0   0   0   0   0   0   0   0   0   0   0   0   0   0   0   0   0   0   0   0   0   0   0   0   0   0   8 2 3 4 6 7 9 12 15 
   3   0   0   0   0   0   0   0   0   0   0   0   0   0   0   0   0   0   0   0   0   0   0   0   0   0   0   7   3   0   0   0   0   0   0   0   0   0   0   0   0   0   0   0   0   0   0   0   0   0   0   4 31 26 19 5 
   4   0   0   0   0   0   2   7   0   0   5   0   0   0   0   0   6   0   0   0   0   4   0   0   0   0   0   9   0   0   0   0   8   0   0   0   0   0   0   0   0   0   0   0   0   0   0   0   0   0   0   9 31 30 29 27 26 24 17 14 13 
   6   0   0   0   7   0   0   0   0   0   0   5   0   0   0   0   0   0   0   0   0   0   0   0   0   0   0   0   0   0   0   0   0   0   0   0   0   0   0   0   0   0   0   0   0   0   0   0   0   0   0   5 29 27 17 16 10 
   2   0   0   0   0   1   0   0   0   0   0   0   0   0   0   0   0   2   0   0   0   2   0   0   0   0   0   0   0   0   0   0   0   0   0   0   0   0   0   0   0   0   0   0   0   0   0   0   0   0   0   6 29 28 18 17 13 11 
   7   0   6   0   0   0   0   0   0   0   6   2   0   0   0   0   0   0   0   0   0   0   0   0   0   0   0   0  10   0  10   0   0   0   0   0   0   0   0   0   0   0   0   0   0   0   0   0   0   0   0   3 29 27 8 
  10   0   1   0   0   0   0   0   0   0   6   5   0   0   9   0   0   0   0   0   0   0   0   0   7   0   0   0   0   0   0   0   0   0   0   0   0   0   0   0   0   0   0   0   0   0   0   0   0   0   0   6 27 26 20 19 18 17 
   7   0   4   0   0   0   0   0   0   5   6   6   0   0   0   0   0   5   0   0   4   0   0   0   0   0   0   0   0   0   0   0   0   0   0   0   0   0   0   0   0   0   0   0   0   0   0   0   0   0   0   2 28 10 
   8   0   0   0   0  10   0   0   0   0   0   0   0   4   0   0   0   5   0  10   0   0   0   7   3   0   0   0   0   0   0   0   0   0   0   0   0   0   0   0   0   0   0   0   0   0   0   0   0   0   0   7 30 27 26 25 24 22 17 
   6   5   0   0   0   0   5   0   0   0   0   0   0   0   9   0   0   0   2   7   0   0   0   0   0   0   0   0   0   0   0   0   0   0   0   0   0   0   0   0   0   0   0   0   0   0   0   0   0   0   0   3 26 24 13 
   9   7   0   0   0   0   8   0   0   0   0   0   0   0   0   4   0   8   0   0   0   0   0   0   0   0   0   0   0   0   0   0   0   0   0   0   0   0   0   0   0   0   0   0   0   0   0   0   0   0   0   6 27 25 24 23 22 21 
  10   0   1   0   0   0   0   5   0   0   0   0   0   0   9   0   0   0   0   0   0   1   0   0   0   0   0   0   1   0   5   0   0   0   0   0   0   0   0   0   0   0   0   0   0   0   0   0   0   0   0   6 29 26 25 24 23 21 
   2   0   0   0   0   0   0   0   0   0   0   0   0   0   0   0   0   0   0   0   4   0   0   0   7   0   4   0   0   0   4   0   0   0   0   0   0   0   0   0   0   0   0   0   0   0   0   0   0   0   0   4 25 23 22 21 
   8   0   0   0   0   0   0   0   0   0   0   0   0   0   8   0   0   0   0   0   6   0   0   0   0   0   0   0   0   0   0   0   0   0   0   0   0   0   0   0   0   0   0   0   0   0   0   0   0   0   0   4 28 23 22 21 
   1   0   0   0   0   0   0   0   0   0   0   0   0   2   0   0   0   0   0   0   0   0   0   0   0   0   0   0   0   0   5   0   0   0   0   0   0   0   0   0   0   0   0   0   0   0   0   0   0   0   0   3 26 22 21 
  10   0   0   0   0  10   0   0   1   0   0   0   0   2   0   0   0   0   1   0   0   0   0   0   0   0   0   2   0   0   0   0   0   0   0   0   0   0   0   0   0   0   0   0   0   0   0   0   0   0   0   2 28 21 
   5   0   0   0   0   0   8   0   0   0   0   0   0   6   0   0   0   0   0   0   0   0   0   0   0   0   0   8   0   0   0  10   0   0   0   0   0   0   0   0   0   0   0   0   0   0   0   0   0   0   0   1 21 
   3   7   0   0   0   0   0   0   0   0   0   0   0   5   0   0   0   0   0   0   4   0   0   0   0   0   0   0   0   0   0   0   4   0   0   0   0   0   0   0   0   0   0   0   0   0   0   0   0   0   0   1 22 
   4   0   0   0   0   8   0   3   0   0   0   6   0   0   8   0   0   0   4   0   0   0   0   1   6   0   0   8   0   0   0   0   0   0   0   0   0   0   0   0   0   0   0   0   0   0   0   0   0   0   0   1 23 
   8   0   0   0   0   8   0   0   0   0   0   0   0   0  10   0   0   0   0   0   0   9   0   0   0   4   0   0   0   2   4   0   0   0   0   0   0   0   0   0   0   0   0   0   0   0   0   0   0   0   0   1 24 
   2   0   0   0   0   0   0   0   0   0   0   0   0   2   0   0   0   7   0   4   0   0   0   0   0   0   0   0   0   0   0   0   0   0   0   0   0   0   0   0   0   0   0   0   0   0   0   0   0   0   0   1 32
   8   0   0   0   0   0   0   0   0   1   0   0   0   0   0   0   0   0   0   0   8   0   0   0   0   0   0   0   8   9   0   0   0   0   0   0   0   0   0   0   0   0   0   0   0   0   0   0   0   0   0   1 32
   4   3   0   0   0   0   0   0   0   0   0   0   0   0   6   0   0   0   0   0   0   0   3   0   0   0   0   0   0   0   0   0   0   0   0   0   0   0   0   0   0   0   0   0   0   0   0   0   0   0   0   1 32
  10   0   0   0   0   0   0   0   0   0   0   0   2   0   0   6   0   0   0   0   0   0   0   8   0   0   0   0   0   6   5   0   0   0   0   0   0   0   0   0   0   0   0   0   0   0   0   0   0   0   0   1 32
   6   0   0   0   0   0   0   0   0   0   0   0   0   0   0   0   0   5   0   4   0   6   0   0   0   0   0   9   0   1   0   0   0   0   0   0   0   0   0   0   0   0   0   0   0   0   0   0   0   0   0   1 32
   1   0   0   0   0   0   0   0   0   0   0   0   0   0   0   0   0   0   0   0   0   0   2   0   0   1   0   0   0   0   0   0   0   0   0   0   0   0   0   0   0   0   0   0   0   0   0   0   0   0   0   1 32
   6   0   0  10   7   0   0   0   0   0   0   0   0   0   0   0   0   0   0   0   0   8   5   0   0   0   0   2   0   0   0   0   0   0   0   0   0   0   0   0   0   0   0   0   0   0   0   0   0   0   0   1 32
   1   0   0   0   7   0   0   0   0   0   0   0   0   0   0   0   0   0   0   0   0   0   0   0   0   0   0   0   0   9   0   0   0   0   0   0   0   0   0   0   0   0   0   0   0   0   0   0   0   0   0   1 32
   8   0   0   0   0   3   0   0   0   0   0   0   0   0   0   0   0   0   0   0   0   0   0   0   8   6   0   0   0   2   0   0   0   0   0   0   0   0   0   0   0   0   0   0   0   0   0   0   0   0   0   1 32
   8   0   0   0   0   0   0   0   0   0   0   0   0   0   0   0   0   0  10   5   0   0   9  10   0   0   0   0   0   0   0   0   0   0   0   0   0   0   0   0   0   0   0   0   0   0   0   0   0   0   0   1 32
   2   9   0   0   0   0   0   0   0   5   0   0   0   0   0   2   0  10   0   0   0   0   0   0   7   5   7   0   0   7   0   0   0   0   0   0   0   0   0   0   0   0   0   0   0   0   0   0   0   0   0   1 32
   0   0   0   0   0   0   0   0   0   0   0   0   0   0   0   0   0   0   0   0   0   0   0   0   0   0   0   0   0   0   0   0   0   0   0   0   0   0   0   0   0   0   0   0   0   0   0   0   0   0   0   0 
